5 5
6 1 4 4 4 2 9 4 17 3 11 5 5 3 3 7 5 2 4 16 3 5 20 4 16 2 7 2 2 10 1 12 5 1 16 4 9 5 15 3 3 2 11
6 1 3 3 5 2 20 5 2 3 8 1 10 4 9 3 1 19 4 10 2 20 4 4 6 2 10 1 4 5 13 2 1 6 4 12 5 4 19 5 2 3 4 2 12 1 11
6 4 3 8 4 19 5 11 2 9 5 1 18 2 17 4 19 5 2 3 19 1 1 5 5 4 18 1 4 5 19 2 20 3 5 2 5 14 4 12 3 2 14 4 5 3 18
4 4 3 19 1 7 2 15 5 5 1 4 15 3 1 9 2 7 5 2 3 3 15 1 19 2 20
5 3 1 16 4 6 5 17 2 4 18 3 19 5 1 13 3 20 2 8 4 6 5 16 5 3 18 1 19 5 19 2 17 4 13 2 4 4 5 17